DATASET = "thpack1";
INSTANCE = "074";

WIDTH = 233;
HEIGHT = 220;
LENGTH = 587;

NO_OF_SHAPES = 3;
size = [|
  86,79,69 |
  53,46,31 |
  96,51,37 |
|];

verticality = [|
  1,1,1 |
  1,1,1 |
  0,1,1 |
|];

box_count = [
  38,
  47,
  47,
];
